564.0
540.0
556.0
565.0
557.0
543.0
555.0
566.0
575.0
556.0
565.0
556.0
557.0
548.0
566.0
565.0
571.0
577.0
547.0
554.0
563.0
549.0
572.0
563.0
578.0
570.0
569.0
556.0
550.0
583.0
555.0
564.0
553.0
548.0
550.0
556.0
557.0
559.0
573.0
565.0
569.0
564.0
545.0
550.0
563.0
561.0
554.0
568.0
563.0
555.0
548.0
575.0
552.0
547.0
573.0
566.0
551.0
547.0
565.0
571.0
561.0
562.0
563.0
571.0
561.0
566.0
574.0
550.0
572.0
573.0
577.0
559.0
548.0
542.0
557.0
567.0
548.0
555.0
560.0
570.0
552.0
557.0
587.0
570.0
565.0
554.0
560.0
572.0
551.0
565.0
554.0
548.0
578.0
538.0
559.0
548.0
573.0
564.0
554.0
577.0
